int NumberPatients = 51
int NumberOfRooms = 15
int NumberSurgeons = 17
int NumberOfDays = 6
Duration = [66,53,166,47,98,105,130,53,103,30,98,85,201,96,140,85,46,32,101,47,53,210,159,66,210,32,210,103,101,44,72,47,131,85,98,85,41,39,32,32,60,98,32,131,97,47,98,66,32,217,317];
Priority = [0,0,0,0,0,0,0,0,0,0,0,0,0,0,0,0,0,0,0,0,0,0,0,0,0,0,0,0,0,0,0,0,0,0,0,0,0,0,0,1,0,0,0,0,0,0,0,0,0,0,0];
Waiting = [39,30,43,214,120,49,115,36,155,84,73,24,176,37,487,186,141,487,211,116,84,120,52,35,31,45,70,172,248,25,39,148,78,312,108,375,148,148,50,191,227,214,60,277,163,120,155,37,351,389,39];
Surgeon = [5,5,5,1,5,6,6,5,2,2,10,8,7,6,4,3,9,2,4,6,3,6,7,4,1,7,1,4,2,1,7,1,1,3,11,3,12,4,2,1,6,12,1,4,1,2,5,1,12,3,13];
BlockAvailability = [[[0,0],[1,1],[0,0],[0,0],[0,0],[1,1],[0,1],[0,1],[0,0],[0,1],[1,1],[0,0],[0,0],[0,0],[1,0]],[[0,1],[0,0],[0,0],[0,1],[1,0],[0,0],[0,0],[0,0],[0,0],[0,0],[0,0],[0,0],[0,1],[0,0],[0,1]],[[0,0],[1,0],[1,1],[0,0],[1,0],[0,0],[1,0],[1,1],[1,0],[0,0],[1,1],[0,0],[1,0],[1,0],[0,1]],[[1,0],[0,0],[0,0],[0,0],[0,0],[1,0],[0,0],[0,0],[0,0],[0,1],[0,0],[0,0],[1,0],[0,1],[0,0]],[[1,0],[1,0],[0,1],[0,0],[0,0],[0,0],[1,1],[0,0],[1,1],[0,0],[0,0],[0,0],[0,1],[0,1],[0,0]],[[0,0],[0,1],[0,0],[0,1],[0,1],[0,0],[0,0],[1,0],[1,0],[0,1],[0,1],[0,0],[0,0],[1,1],[0,1]]];
SurgeonAvailability = [[[1,1],[1,0],[0,1],[1,0],[1,1],[1,1]],[[0,0],[1,0],[0,1],[1,1],[1,1],[0,1]],[[1,1],[1,0],[1,0],[0,1],[1,0],[1,0]],[[1,1],[0,1],[1,1],[0,1],[1,1],[1,1]],[[0,1],[1,0],[1,0],[0,0],[1,1],[1,1]],[[0,1],[0,1],[0,1],[1,1],[1,1],[1,0]],[[1,0],[1,1],[1,1],[1,1],[1,1],[1,1]],[[1,1],[0,1],[1,0],[1,1],[0,0],[1,1]],[[1,1],[1,1],[0,1],[1,1],[1,1],[1,1]],[[1,1],[0,1],[0,1],[1,1],[1,0],[0,1]],[[0,0],[0,0],[0,0],[1,0],[1,1],[1,1]],[[1,1],[0,1],[1,0],[1,0],[1,0],[1,1]],[[1,1],[0,1],[0,0],[1,1],[1,1],[1,1]],[[0,1],[1,1],[1,0],[1,1],[1,1],[0,1]],[[0,1],[1,1],[1,1],[1,1],[1,1],[1,0]],[[0,1],[0,1],[1,1],[1,1],[1,1],[1,0]],[[1,1],[1,1],[1,0],[1,1],[1,1],[1,1]]];
